(set-info :category "industrial")
(set-info :status sat)
(declare-fun x00 () (_ BitVec 8))
(declare-fun x02 () (_ BitVec 8))
(declare-fun x03 () (_ BitVec 8))
(declare-fun x05 () (_ BitVec 8))
(declare-fun x08 () (_ BitVec 8))
(declare-fun x10 () (_ BitVec 8))
(declare-fun x11 () (_ BitVec 8))
(declare-fun x15 () (_ BitVec 8))
(declare-fun x17 () (_ BitVec 8))
(declare-fun x18 () (_ BitVec 8))
(declare-fun x21 () (_ BitVec 8))
(declare-fun x22 () (_ BitVec 8))
(declare-fun x23 () (_ BitVec 8))
(declare-fun x24 () (_ BitVec 8))
(declare-fun x26 () (_ BitVec 8))
(declare-fun x32 () (_ BitVec 8))
(declare-fun x33 () (_ BitVec 8))
(declare-fun x34 () (_ BitVec 8))
(declare-fun x37 () (_ BitVec 8))
(declare-fun x38 () (_ BitVec 8))
(declare-fun x40 () (_ BitVec 8))
(declare-fun x41 () (_ BitVec 8))
(declare-fun x42 () (_ BitVec 8))
(declare-fun x43 () (_ BitVec 8))
(declare-fun x46 () (_ BitVec 8))
(declare-fun x47 () (_ BitVec 8))
(declare-fun x51 () (_ BitVec 8))
(declare-fun x52 () (_ BitVec 8))
(declare-fun x54 () (_ BitVec 8))
(declare-fun x56 () (_ BitVec 8))
(declare-fun x57 () (_ BitVec 8))
(declare-fun x62 () (_ BitVec 8))
(declare-fun x63 () (_ BitVec 8))
(declare-fun x64 () (_ BitVec 8))
(declare-fun x67 () (_ BitVec 8))
(declare-fun x68 () (_ BitVec 8))
(declare-fun x70 () (_ BitVec 8))
(declare-fun x74 () (_ BitVec 8))
(declare-fun x75 () (_ BitVec 8))
(declare-fun x77 () (_ BitVec 8))
(declare-fun x78 () (_ BitVec 8))
(declare-fun x80 () (_ BitVec 8))
(declare-fun x82 () (_ BitVec 8))
(declare-fun x83 () (_ BitVec 8))
(declare-fun x84 () (_ BitVec 8))
(declare-fun x85 () (_ BitVec 8))
(declare-fun x86 () (_ BitVec 8))
(assert (bvult x00 (_ bv9 8)))
(assert (bvult x02 (_ bv9 8)))
(assert (bvult x03 (_ bv9 8)))
(assert (bvult x05 (_ bv9 8)))
(assert (bvult x08 (_ bv9 8)))
(assert (bvult x10 (_ bv9 8)))
(assert (bvult x11 (_ bv9 8)))
(assert (bvult x15 (_ bv9 8)))
(assert (bvult x17 (_ bv9 8)))
(assert (bvult x18 (_ bv9 8)))
(assert (bvult x21 (_ bv9 8)))
(assert (bvult x22 (_ bv9 8)))
(assert (bvult x23 (_ bv9 8)))
(assert (bvult x24 (_ bv9 8)))
(assert (bvult x26 (_ bv9 8)))
(assert (bvult x32 (_ bv9 8)))
(assert (bvult x33 (_ bv9 8)))
(assert (bvult x34 (_ bv9 8)))
(assert (bvult x37 (_ bv9 8)))
(assert (bvult x38 (_ bv9 8)))
(assert (bvult x40 (_ bv9 8)))
(assert (bvult x41 (_ bv9 8)))
(assert (bvult x42 (_ bv9 8)))
(assert (bvult x43 (_ bv9 8)))
(assert (bvult x46 (_ bv9 8)))
(assert (bvult x47 (_ bv9 8)))
(assert (bvult x51 (_ bv9 8)))
(assert (bvult x52 (_ bv9 8)))
(assert (bvult x54 (_ bv9 8)))
(assert (bvult x56 (_ bv9 8)))
(assert (bvult x57 (_ bv9 8)))
(assert (bvult x62 (_ bv9 8)))
(assert (bvult x63 (_ bv9 8)))
(assert (bvult x64 (_ bv9 8)))
(assert (bvult x67 (_ bv9 8)))
(assert (bvult x68 (_ bv9 8)))
(assert (bvult x70 (_ bv9 8)))
(assert (bvult x74 (_ bv9 8)))
(assert (bvult x75 (_ bv9 8)))
(assert (bvult x77 (_ bv9 8)))
(assert (bvult x78 (_ bv9 8)))
(assert (bvult x80 (_ bv9 8)))
(assert (bvult x82 (_ bv9 8)))
(assert (bvult x83 (_ bv9 8)))
(assert (bvult x84 (_ bv9 8)))
(assert (bvult x85 (_ bv9 8)))
(assert (bvult x86 (_ bv9 8)))
(assert (not (= x00 (_ bv2 8))))
(assert (not (= x00 x02)))
(assert (not (= x00 x03)))
(assert (not (= x00 (_ bv6 8))))
(assert (not (= x00 x05)))
(assert (not (= x00 (_ bv8 8))))
(assert (not (= x00 (_ bv1 8))))
(assert (not (= x00 x08)))
(assert (not (= (_ bv2 8) x02)))
(assert (not (= (_ bv2 8) x03)))
(assert (not (= (_ bv2 8) (_ bv6 8))))
(assert (not (= (_ bv2 8) x05)))
(assert (not (= (_ bv2 8) (_ bv8 8))))
(assert (not (= (_ bv2 8) (_ bv1 8))))
(assert (not (= (_ bv2 8) x08)))
(assert (not (= x02 x03)))
(assert (not (= x02 (_ bv6 8))))
(assert (not (= x02 x05)))
(assert (not (= x02 (_ bv8 8))))
(assert (not (= x02 (_ bv1 8))))
(assert (not (= x02 x08)))
(assert (not (= x03 (_ bv6 8))))
(assert (not (= x03 x05)))
(assert (not (= x03 (_ bv8 8))))
(assert (not (= x03 (_ bv1 8))))
(assert (not (= x03 x08)))
(assert (not (= (_ bv6 8) x05)))
(assert (not (= (_ bv6 8) (_ bv8 8))))
(assert (not (= (_ bv6 8) (_ bv1 8))))
(assert (not (= (_ bv6 8) x08)))
(assert (not (= x05 (_ bv8 8))))
(assert (not (= x05 (_ bv1 8))))
(assert (not (= x05 x08)))
(assert (not (= (_ bv8 8) (_ bv1 8))))
(assert (not (= (_ bv8 8) x08)))
(assert (not (= (_ bv1 8) x08)))
(assert (not (= x10 x11)))
(assert (not (= x10 (_ bv8 8))))
(assert (not (= x10 (_ bv5 8))))
(assert (not (= x10 (_ bv9 8))))
(assert (not (= x10 x15)))
(assert (not (= x10 (_ bv6 8))))
(assert (not (= x10 x17)))
(assert (not (= x10 x18)))
(assert (not (= x11 (_ bv8 8))))
(assert (not (= x11 (_ bv5 8))))
(assert (not (= x11 (_ bv9 8))))
(assert (not (= x11 x15)))
(assert (not (= x11 (_ bv6 8))))
(assert (not (= x11 x17)))
(assert (not (= x11 x18)))
(assert (not (= (_ bv8 8) (_ bv5 8))))
(assert (not (= (_ bv8 8) (_ bv9 8))))
(assert (not (= (_ bv8 8) x15)))
(assert (not (= (_ bv8 8) (_ bv6 8))))
(assert (not (= (_ bv8 8) x17)))
(assert (not (= (_ bv8 8) x18)))
(assert (not (= (_ bv5 8) (_ bv9 8))))
(assert (not (= (_ bv5 8) x15)))
(assert (not (= (_ bv5 8) (_ bv6 8))))
(assert (not (= (_ bv5 8) x17)))
(assert (not (= (_ bv5 8) x18)))
(assert (not (= (_ bv9 8) x15)))
(assert (not (= (_ bv9 8) (_ bv6 8))))
(assert (not (= (_ bv9 8) x17)))
(assert (not (= (_ bv9 8) x18)))
(assert (not (= x15 (_ bv6 8))))
(assert (not (= x15 x17)))
(assert (not (= x15 x18)))
(assert (not (= (_ bv6 8) x17)))
(assert (not (= (_ bv6 8) x18)))
(assert (not (= x17 x18)))
(assert (not (= (_ bv4 8) x21)))
(assert (not (= (_ bv4 8) x22)))
(assert (not (= (_ bv4 8) x23)))
(assert (not (= (_ bv4 8) x24)))
(assert (not (= (_ bv4 8) (_ bv2 8))))
(assert (not (= (_ bv4 8) x26)))
(assert (not (= (_ bv4 8) (_ bv7 8))))
(assert (not (= (_ bv4 8) (_ bv3 8))))
(assert (not (= x21 x22)))
(assert (not (= x21 x23)))
(assert (not (= x21 x24)))
(assert (not (= x21 (_ bv2 8))))
(assert (not (= x21 x26)))
(assert (not (= x21 (_ bv7 8))))
(assert (not (= x21 (_ bv3 8))))
(assert (not (= x22 x23)))
(assert (not (= x22 x24)))
(assert (not (= x22 (_ bv2 8))))
(assert (not (= x22 x26)))
(assert (not (= x22 (_ bv7 8))))
(assert (not (= x22 (_ bv3 8))))
(assert (not (= x23 x24)))
(assert (not (= x23 (_ bv2 8))))
(assert (not (= x23 x26)))
(assert (not (= x23 (_ bv7 8))))
(assert (not (= x23 (_ bv3 8))))
(assert (not (= x24 (_ bv2 8))))
(assert (not (= x24 x26)))
(assert (not (= x24 (_ bv7 8))))
(assert (not (= x24 (_ bv3 8))))
(assert (not (= (_ bv2 8) x26)))
(assert (not (= (_ bv2 8) (_ bv7 8))))
(assert (not (= (_ bv2 8) (_ bv3 8))))
(assert (not (= x26 (_ bv7 8))))
(assert (not (= x26 (_ bv3 8))))
(assert (not (= (_ bv7 8) (_ bv3 8))))
(assert (not (= (_ bv2 8) (_ bv7 8))))
(assert (not (= (_ bv2 8) x32)))
(assert (not (= (_ bv2 8) x33)))
(assert (not (= (_ bv2 8) x34)))
(assert (not (= (_ bv2 8) (_ bv5 8))))
(assert (not (= (_ bv2 8) (_ bv9 8))))
(assert (not (= (_ bv2 8) x37)))
(assert (not (= (_ bv2 8) x38)))
(assert (not (= (_ bv7 8) x32)))
(assert (not (= (_ bv7 8) x33)))
(assert (not (= (_ bv7 8) x34)))
(assert (not (= (_ bv7 8) (_ bv5 8))))
(assert (not (= (_ bv7 8) (_ bv9 8))))
(assert (not (= (_ bv7 8) x37)))
(assert (not (= (_ bv7 8) x38)))
(assert (not (= x32 x33)))
(assert (not (= x32 x34)))
(assert (not (= x32 (_ bv5 8))))
(assert (not (= x32 (_ bv9 8))))
(assert (not (= x32 x37)))
(assert (not (= x32 x38)))
(assert (not (= x33 x34)))
(assert (not (= x33 (_ bv5 8))))
(assert (not (= x33 (_ bv9 8))))
(assert (not (= x33 x37)))
(assert (not (= x33 x38)))
(assert (not (= x34 (_ bv5 8))))
(assert (not (= x34 (_ bv9 8))))
(assert (not (= x34 x37)))
(assert (not (= x34 x38)))
(assert (not (= (_ bv5 8) (_ bv9 8))))
(assert (not (= (_ bv5 8) x37)))
(assert (not (= (_ bv5 8) x38)))
(assert (not (= (_ bv9 8) x37)))
(assert (not (= (_ bv9 8) x38)))
(assert (not (= x37 x38)))
(assert (not (= x40 x41)))
(assert (not (= x40 x42)))
(assert (not (= x40 x43)))
(assert (not (= x40 (_ bv7 8))))
(assert (not (= x40 (_ bv1 8))))
(assert (not (= x40 x46)))
(assert (not (= x40 x47)))
(assert (not (= x40 (_ bv5 8))))
(assert (not (= x41 x42)))
(assert (not (= x41 x43)))
(assert (not (= x41 (_ bv7 8))))
(assert (not (= x41 (_ bv1 8))))
(assert (not (= x41 x46)))
(assert (not (= x41 x47)))
(assert (not (= x41 (_ bv5 8))))
(assert (not (= x42 x43)))
(assert (not (= x42 (_ bv7 8))))
(assert (not (= x42 (_ bv1 8))))
(assert (not (= x42 x46)))
(assert (not (= x42 x47)))
(assert (not (= x42 (_ bv5 8))))
(assert (not (= x43 (_ bv7 8))))
(assert (not (= x43 (_ bv1 8))))
(assert (not (= x43 x46)))
(assert (not (= x43 x47)))
(assert (not (= x43 (_ bv5 8))))
(assert (not (= (_ bv7 8) (_ bv1 8))))
(assert (not (= (_ bv7 8) x46)))
(assert (not (= (_ bv7 8) x47)))
(assert (not (= (_ bv7 8) (_ bv5 8))))
(assert (not (= (_ bv1 8) x46)))
(assert (not (= (_ bv1 8) x47)))
(assert (not (= (_ bv1 8) (_ bv5 8))))
(assert (not (= x46 x47)))
(assert (not (= x46 (_ bv5 8))))
(assert (not (= x47 (_ bv5 8))))
(assert (not (= (_ bv9 8) x51)))
(assert (not (= (_ bv9 8) x52)))
(assert (not (= (_ bv9 8) (_ bv2 8))))
(assert (not (= (_ bv9 8) x54)))
(assert (not (= (_ bv9 8) (_ bv3 8))))
(assert (not (= (_ bv9 8) x56)))
(assert (not (= (_ bv9 8) x57)))
(assert (not (= (_ bv9 8) (_ bv4 8))))
(assert (not (= x51 x52)))
(assert (not (= x51 (_ bv2 8))))
(assert (not (= x51 x54)))
(assert (not (= x51 (_ bv3 8))))
(assert (not (= x51 x56)))
(assert (not (= x51 x57)))
(assert (not (= x51 (_ bv4 8))))
(assert (not (= x52 (_ bv2 8))))
(assert (not (= x52 x54)))
(assert (not (= x52 (_ bv3 8))))
(assert (not (= x52 x56)))
(assert (not (= x52 x57)))
(assert (not (= x52 (_ bv4 8))))
(assert (not (= (_ bv2 8) x54)))
(assert (not (= (_ bv2 8) (_ bv3 8))))
(assert (not (= (_ bv2 8) x56)))
(assert (not (= (_ bv2 8) x57)))
(assert (not (= (_ bv2 8) (_ bv4 8))))
(assert (not (= x54 (_ bv3 8))))
(assert (not (= x54 x56)))
(assert (not (= x54 x57)))
(assert (not (= x54 (_ bv4 8))))
(assert (not (= (_ bv3 8) x56)))
(assert (not (= (_ bv3 8) x57)))
(assert (not (= (_ bv3 8) (_ bv4 8))))
(assert (not (= x56 x57)))
(assert (not (= x56 (_ bv4 8))))
(assert (not (= x57 (_ bv4 8))))
(assert (not (= (_ bv1 8) (_ bv4 8))))
(assert (not (= (_ bv1 8) x62)))
(assert (not (= (_ bv1 8) x63)))
(assert (not (= (_ bv1 8) x64)))
(assert (not (= (_ bv1 8) (_ bv8 8))))
(assert (not (= (_ bv1 8) (_ bv3 8))))
(assert (not (= (_ bv1 8) x67)))
(assert (not (= (_ bv1 8) x68)))
(assert (not (= (_ bv4 8) x62)))
(assert (not (= (_ bv4 8) x63)))
(assert (not (= (_ bv4 8) x64)))
(assert (not (= (_ bv4 8) (_ bv8 8))))
(assert (not (= (_ bv4 8) (_ bv3 8))))
(assert (not (= (_ bv4 8) x67)))
(assert (not (= (_ bv4 8) x68)))
(assert (not (= x62 x63)))
(assert (not (= x62 x64)))
(assert (not (= x62 (_ bv8 8))))
(assert (not (= x62 (_ bv3 8))))
(assert (not (= x62 x67)))
(assert (not (= x62 x68)))
(assert (not (= x63 x64)))
(assert (not (= x63 (_ bv8 8))))
(assert (not (= x63 (_ bv3 8))))
(assert (not (= x63 x67)))
(assert (not (= x63 x68)))
(assert (not (= x64 (_ bv8 8))))
(assert (not (= x64 (_ bv3 8))))
(assert (not (= x64 x67)))
(assert (not (= x64 x68)))
(assert (not (= (_ bv8 8) (_ bv3 8))))
(assert (not (= (_ bv8 8) x67)))
(assert (not (= (_ bv8 8) x68)))
(assert (not (= (_ bv3 8) x67)))
(assert (not (= (_ bv3 8) x68)))
(assert (not (= x67 x68)))
(assert (not (= x70 (_ bv3 8))))
(assert (not (= x70 (_ bv6 8))))
(assert (not (= x70 (_ bv4 8))))
(assert (not (= x70 x74)))
(assert (not (= x70 x75)))
(assert (not (= x70 (_ bv1 8))))
(assert (not (= x70 x77)))
(assert (not (= x70 x78)))
(assert (not (= (_ bv3 8) (_ bv6 8))))
(assert (not (= (_ bv3 8) (_ bv4 8))))
(assert (not (= (_ bv3 8) x74)))
(assert (not (= (_ bv3 8) x75)))
(assert (not (= (_ bv3 8) (_ bv1 8))))
(assert (not (= (_ bv3 8) x77)))
(assert (not (= (_ bv3 8) x78)))
(assert (not (= (_ bv6 8) (_ bv4 8))))
(assert (not (= (_ bv6 8) x74)))
(assert (not (= (_ bv6 8) x75)))
(assert (not (= (_ bv6 8) (_ bv1 8))))
(assert (not (= (_ bv6 8) x77)))
(assert (not (= (_ bv6 8) x78)))
(assert (not (= (_ bv4 8) x74)))
(assert (not (= (_ bv4 8) x75)))
(assert (not (= (_ bv4 8) (_ bv1 8))))
(assert (not (= (_ bv4 8) x77)))
(assert (not (= (_ bv4 8) x78)))
(assert (not (= x74 x75)))
(assert (not (= x74 (_ bv1 8))))
(assert (not (= x74 x77)))
(assert (not (= x74 x78)))
(assert (not (= x75 (_ bv1 8))))
(assert (not (= x75 x77)))
(assert (not (= x75 x78)))
(assert (not (= (_ bv1 8) x77)))
(assert (not (= (_ bv1 8) x78)))
(assert (not (= x77 x78)))
(assert (not (= x80 (_ bv9 8))))
(assert (not (= x80 x82)))
(assert (not (= x80 x83)))
(assert (not (= x80 x84)))
(assert (not (= x80 x85)))
(assert (not (= x80 x86)))
(assert (not (= x80 (_ bv2 8))))
(assert (not (= x80 (_ bv7 8))))
(assert (not (= (_ bv9 8) x82)))
(assert (not (= (_ bv9 8) x83)))
(assert (not (= (_ bv9 8) x84)))
(assert (not (= (_ bv9 8) x85)))
(assert (not (= (_ bv9 8) x86)))
(assert (not (= (_ bv9 8) (_ bv2 8))))
(assert (not (= (_ bv9 8) (_ bv7 8))))
(assert (not (= x82 x83)))
(assert (not (= x82 x84)))
(assert (not (= x82 x85)))
(assert (not (= x82 x86)))
(assert (not (= x82 (_ bv2 8))))
(assert (not (= x82 (_ bv7 8))))
(assert (not (= x83 x84)))
(assert (not (= x83 x85)))
(assert (not (= x83 x86)))
(assert (not (= x83 (_ bv2 8))))
(assert (not (= x83 (_ bv7 8))))
(assert (not (= x84 x85)))
(assert (not (= x84 x86)))
(assert (not (= x84 (_ bv2 8))))
(assert (not (= x84 (_ bv7 8))))
(assert (not (= x85 x86)))
(assert (not (= x85 (_ bv2 8))))
(assert (not (= x85 (_ bv7 8))))
(assert (not (= x86 (_ bv2 8))))
(assert (not (= x86 (_ bv7 8))))
(assert (not (= (_ bv2 8) (_ bv7 8))))
(assert (not (= x00 x10)))
(assert (not (= x00 (_ bv4 8))))
(assert (not (= x00 (_ bv2 8))))
(assert (not (= x00 x40)))
(assert (not (= x00 (_ bv9 8))))
(assert (not (= x00 (_ bv1 8))))
(assert (not (= x00 x70)))
(assert (not (= x00 x80)))
(assert (not (= x10 (_ bv4 8))))
(assert (not (= x10 (_ bv2 8))))
(assert (not (= x10 x40)))
(assert (not (= x10 (_ bv9 8))))
(assert (not (= x10 (_ bv1 8))))
(assert (not (= x10 x70)))
(assert (not (= x10 x80)))
(assert (not (= (_ bv4 8) (_ bv2 8))))
(assert (not (= (_ bv4 8) x40)))
(assert (not (= (_ bv4 8) (_ bv9 8))))
(assert (not (= (_ bv4 8) (_ bv1 8))))
(assert (not (= (_ bv4 8) x70)))
(assert (not (= (_ bv4 8) x80)))
(assert (not (= (_ bv2 8) x40)))
(assert (not (= (_ bv2 8) (_ bv9 8))))
(assert (not (= (_ bv2 8) (_ bv1 8))))
(assert (not (= (_ bv2 8) x70)))
(assert (not (= (_ bv2 8) x80)))
(assert (not (= x40 (_ bv9 8))))
(assert (not (= x40 (_ bv1 8))))
(assert (not (= x40 x70)))
(assert (not (= x40 x80)))
(assert (not (= (_ bv9 8) (_ bv1 8))))
(assert (not (= (_ bv9 8) x70)))
(assert (not (= (_ bv9 8) x80)))
(assert (not (= (_ bv1 8) x70)))
(assert (not (= (_ bv1 8) x80)))
(assert (not (= x70 x80)))
(assert (not (= (_ bv2 8) x11)))
(assert (not (= (_ bv2 8) x21)))
(assert (not (= (_ bv2 8) (_ bv7 8))))
(assert (not (= (_ bv2 8) x41)))
(assert (not (= (_ bv2 8) x51)))
(assert (not (= (_ bv2 8) (_ bv4 8))))
(assert (not (= (_ bv2 8) (_ bv3 8))))
(assert (not (= (_ bv2 8) (_ bv9 8))))
(assert (not (= x11 x21)))
(assert (not (= x11 (_ bv7 8))))
(assert (not (= x11 x41)))
(assert (not (= x11 x51)))
(assert (not (= x11 (_ bv4 8))))
(assert (not (= x11 (_ bv3 8))))
(assert (not (= x11 (_ bv9 8))))
(assert (not (= x21 (_ bv7 8))))
(assert (not (= x21 x41)))
(assert (not (= x21 x51)))
(assert (not (= x21 (_ bv4 8))))
(assert (not (= x21 (_ bv3 8))))
(assert (not (= x21 (_ bv9 8))))
(assert (not (= (_ bv7 8) x41)))
(assert (not (= (_ bv7 8) x51)))
(assert (not (= (_ bv7 8) (_ bv4 8))))
(assert (not (= (_ bv7 8) (_ bv3 8))))
(assert (not (= (_ bv7 8) (_ bv9 8))))
(assert (not (= x41 x51)))
(assert (not (= x41 (_ bv4 8))))
(assert (not (= x41 (_ bv3 8))))
(assert (not (= x41 (_ bv9 8))))
(assert (not (= x51 (_ bv4 8))))
(assert (not (= x51 (_ bv3 8))))
(assert (not (= x51 (_ bv9 8))))
(assert (not (= (_ bv4 8) (_ bv3 8))))
(assert (not (= (_ bv4 8) (_ bv9 8))))
(assert (not (= (_ bv3 8) (_ bv9 8))))
(assert (not (= x02 (_ bv8 8))))
(assert (not (= x02 x22)))
(assert (not (= x02 x32)))
(assert (not (= x02 x42)))
(assert (not (= x02 x52)))
(assert (not (= x02 x62)))
(assert (not (= x02 (_ bv6 8))))
(assert (not (= x02 x82)))
(assert (not (= (_ bv8 8) x22)))
(assert (not (= (_ bv8 8) x32)))
(assert (not (= (_ bv8 8) x42)))
(assert (not (= (_ bv8 8) x52)))
(assert (not (= (_ bv8 8) x62)))
(assert (not (= (_ bv8 8) (_ bv6 8))))
(assert (not (= (_ bv8 8) x82)))
(assert (not (= x22 x32)))
(assert (not (= x22 x42)))
(assert (not (= x22 x52)))
(assert (not (= x22 x62)))
(assert (not (= x22 (_ bv6 8))))
(assert (not (= x22 x82)))
(assert (not (= x32 x42)))
(assert (not (= x32 x52)))
(assert (not (= x32 x62)))
(assert (not (= x32 (_ bv6 8))))
(assert (not (= x32 x82)))
(assert (not (= x42 x52)))
(assert (not (= x42 x62)))
(assert (not (= x42 (_ bv6 8))))
(assert (not (= x42 x82)))
(assert (not (= x52 x62)))
(assert (not (= x52 (_ bv6 8))))
(assert (not (= x52 x82)))
(assert (not (= x62 (_ bv6 8))))
(assert (not (= x62 x82)))
(assert (not (= (_ bv6 8) x82)))
(assert (not (= x03 (_ bv5 8))))
(assert (not (= x03 x23)))
(assert (not (= x03 x33)))
(assert (not (= x03 x43)))
(assert (not (= x03 (_ bv2 8))))
(assert (not (= x03 x63)))
(assert (not (= x03 (_ bv4 8))))
(assert (not (= x03 x83)))
(assert (not (= (_ bv5 8) x23)))
(assert (not (= (_ bv5 8) x33)))
(assert (not (= (_ bv5 8) x43)))
(assert (not (= (_ bv5 8) (_ bv2 8))))
(assert (not (= (_ bv5 8) x63)))
(assert (not (= (_ bv5 8) (_ bv4 8))))
(assert (not (= (_ bv5 8) x83)))
(assert (not (= x23 x33)))
(assert (not (= x23 x43)))
(assert (not (= x23 (_ bv2 8))))
(assert (not (= x23 x63)))
(assert (not (= x23 (_ bv4 8))))
(assert (not (= x23 x83)))
(assert (not (= x33 x43)))
(assert (not (= x33 (_ bv2 8))))
(assert (not (= x33 x63)))
(assert (not (= x33 (_ bv4 8))))
(assert (not (= x33 x83)))
(assert (not (= x43 (_ bv2 8))))
(assert (not (= x43 x63)))
(assert (not (= x43 (_ bv4 8))))
(assert (not (= x43 x83)))
(assert (not (= (_ bv2 8) x63)))
(assert (not (= (_ bv2 8) (_ bv4 8))))
(assert (not (= (_ bv2 8) x83)))
(assert (not (= x63 (_ bv4 8))))
(assert (not (= x63 x83)))
(assert (not (= (_ bv4 8) x83)))
(assert (not (= (_ bv6 8) (_ bv9 8))))
(assert (not (= (_ bv6 8) x24)))
(assert (not (= (_ bv6 8) x34)))
(assert (not (= (_ bv6 8) (_ bv7 8))))
(assert (not (= (_ bv6 8) x54)))
(assert (not (= (_ bv6 8) x64)))
(assert (not (= (_ bv6 8) x74)))
(assert (not (= (_ bv6 8) x84)))
(assert (not (= (_ bv9 8) x24)))
(assert (not (= (_ bv9 8) x34)))
(assert (not (= (_ bv9 8) (_ bv7 8))))
(assert (not (= (_ bv9 8) x54)))
(assert (not (= (_ bv9 8) x64)))
(assert (not (= (_ bv9 8) x74)))
(assert (not (= (_ bv9 8) x84)))
(assert (not (= x24 x34)))
(assert (not (= x24 (_ bv7 8))))
(assert (not (= x24 x54)))
(assert (not (= x24 x64)))
(assert (not (= x24 x74)))
(assert (not (= x24 x84)))
(assert (not (= x34 (_ bv7 8))))
(assert (not (= x34 x54)))
(assert (not (= x34 x64)))
(assert (not (= x34 x74)))
(assert (not (= x34 x84)))
(assert (not (= (_ bv7 8) x54)))
(assert (not (= (_ bv7 8) x64)))
(assert (not (= (_ bv7 8) x74)))
(assert (not (= (_ bv7 8) x84)))
(assert (not (= x54 x64)))
(assert (not (= x54 x74)))
(assert (not (= x54 x84)))
(assert (not (= x64 x74)))
(assert (not (= x64 x84)))
(assert (not (= x74 x84)))
(assert (not (= x05 x15)))
(assert (not (= x05 (_ bv2 8))))
(assert (not (= x05 (_ bv5 8))))
(assert (not (= x05 (_ bv1 8))))
(assert (not (= x05 (_ bv3 8))))
(assert (not (= x05 (_ bv8 8))))
(assert (not (= x05 x75)))
(assert (not (= x05 x85)))
(assert (not (= x15 (_ bv2 8))))
(assert (not (= x15 (_ bv5 8))))
(assert (not (= x15 (_ bv1 8))))
(assert (not (= x15 (_ bv3 8))))
(assert (not (= x15 (_ bv8 8))))
(assert (not (= x15 x75)))
(assert (not (= x15 x85)))
(assert (not (= (_ bv2 8) (_ bv5 8))))
(assert (not (= (_ bv2 8) (_ bv1 8))))
(assert (not (= (_ bv2 8) (_ bv3 8))))
(assert (not (= (_ bv2 8) (_ bv8 8))))
(assert (not (= (_ bv2 8) x75)))
(assert (not (= (_ bv2 8) x85)))
(assert (not (= (_ bv5 8) (_ bv1 8))))
(assert (not (= (_ bv5 8) (_ bv3 8))))
(assert (not (= (_ bv5 8) (_ bv8 8))))
(assert (not (= (_ bv5 8) x75)))
(assert (not (= (_ bv5 8) x85)))
(assert (not (= (_ bv1 8) (_ bv3 8))))
(assert (not (= (_ bv1 8) (_ bv8 8))))
(assert (not (= (_ bv1 8) x75)))
(assert (not (= (_ bv1 8) x85)))
(assert (not (= (_ bv3 8) (_ bv8 8))))
(assert (not (= (_ bv3 8) x75)))
(assert (not (= (_ bv3 8) x85)))
(assert (not (= (_ bv8 8) x75)))
(assert (not (= (_ bv8 8) x85)))
(assert (not (= x75 x85)))
(assert (not (= (_ bv8 8) (_ bv6 8))))
(assert (not (= (_ bv8 8) x26)))
(assert (not (= (_ bv8 8) (_ bv9 8))))
(assert (not (= (_ bv8 8) x46)))
(assert (not (= (_ bv8 8) x56)))
(assert (not (= (_ bv8 8) (_ bv3 8))))
(assert (not (= (_ bv8 8) (_ bv1 8))))
(assert (not (= (_ bv8 8) x86)))
(assert (not (= (_ bv6 8) x26)))
(assert (not (= (_ bv6 8) (_ bv9 8))))
(assert (not (= (_ bv6 8) x46)))
(assert (not (= (_ bv6 8) x56)))
(assert (not (= (_ bv6 8) (_ bv3 8))))
(assert (not (= (_ bv6 8) (_ bv1 8))))
(assert (not (= (_ bv6 8) x86)))
(assert (not (= x26 (_ bv9 8))))
(assert (not (= x26 x46)))
(assert (not (= x26 x56)))
(assert (not (= x26 (_ bv3 8))))
(assert (not (= x26 (_ bv1 8))))
(assert (not (= x26 x86)))
(assert (not (= (_ bv9 8) x46)))
(assert (not (= (_ bv9 8) x56)))
(assert (not (= (_ bv9 8) (_ bv3 8))))
(assert (not (= (_ bv9 8) (_ bv1 8))))
(assert (not (= (_ bv9 8) x86)))
(assert (not (= x46 x56)))
(assert (not (= x46 (_ bv3 8))))
(assert (not (= x46 (_ bv1 8))))
(assert (not (= x46 x86)))
(assert (not (= x56 (_ bv3 8))))
(assert (not (= x56 (_ bv1 8))))
(assert (not (= x56 x86)))
(assert (not (= (_ bv3 8) (_ bv1 8))))
(assert (not (= (_ bv3 8) x86)))
(assert (not (= (_ bv1 8) x86)))
(assert (not (= (_ bv1 8) x17)))
(assert (not (= (_ bv1 8) (_ bv7 8))))
(assert (not (= (_ bv1 8) x37)))
(assert (not (= (_ bv1 8) x47)))
(assert (not (= (_ bv1 8) x57)))
(assert (not (= (_ bv1 8) x67)))
(assert (not (= (_ bv1 8) x77)))
(assert (not (= (_ bv1 8) (_ bv2 8))))
(assert (not (= x17 (_ bv7 8))))
(assert (not (= x17 x37)))
(assert (not (= x17 x47)))
(assert (not (= x17 x57)))
(assert (not (= x17 x67)))
(assert (not (= x17 x77)))
(assert (not (= x17 (_ bv2 8))))
(assert (not (= (_ bv7 8) x37)))
(assert (not (= (_ bv7 8) x47)))
(assert (not (= (_ bv7 8) x57)))
(assert (not (= (_ bv7 8) x67)))
(assert (not (= (_ bv7 8) x77)))
(assert (not (= (_ bv7 8) (_ bv2 8))))
(assert (not (= x37 x47)))
(assert (not (= x37 x57)))
(assert (not (= x37 x67)))
(assert (not (= x37 x77)))
(assert (not (= x37 (_ bv2 8))))
(assert (not (= x47 x57)))
(assert (not (= x47 x67)))
(assert (not (= x47 x77)))
(assert (not (= x47 (_ bv2 8))))
(assert (not (= x57 x67)))
(assert (not (= x57 x77)))
(assert (not (= x57 (_ bv2 8))))
(assert (not (= x67 x77)))
(assert (not (= x67 (_ bv2 8))))
(assert (not (= x77 (_ bv2 8))))
(assert (not (= x08 x18)))
(assert (not (= x08 (_ bv3 8))))
(assert (not (= x08 x38)))
(assert (not (= x08 (_ bv5 8))))
(assert (not (= x08 (_ bv4 8))))
(assert (not (= x08 x68)))
(assert (not (= x08 x78)))
(assert (not (= x08 (_ bv7 8))))
(assert (not (= x18 (_ bv3 8))))
(assert (not (= x18 x38)))
(assert (not (= x18 (_ bv5 8))))
(assert (not (= x18 (_ bv4 8))))
(assert (not (= x18 x68)))
(assert (not (= x18 x78)))
(assert (not (= x18 (_ bv7 8))))
(assert (not (= (_ bv3 8) x38)))
(assert (not (= (_ bv3 8) (_ bv5 8))))
(assert (not (= (_ bv3 8) (_ bv4 8))))
(assert (not (= (_ bv3 8) x68)))
(assert (not (= (_ bv3 8) x78)))
(assert (not (= (_ bv3 8) (_ bv7 8))))
(assert (not (= x38 (_ bv5 8))))
(assert (not (= x38 (_ bv4 8))))
(assert (not (= x38 x68)))
(assert (not (= x38 x78)))
(assert (not (= x38 (_ bv7 8))))
(assert (not (= (_ bv5 8) (_ bv4 8))))
(assert (not (= (_ bv5 8) x68)))
(assert (not (= (_ bv5 8) x78)))
(assert (not (= (_ bv5 8) (_ bv7 8))))
(assert (not (= (_ bv4 8) x68)))
(assert (not (= (_ bv4 8) x78)))
(assert (not (= (_ bv4 8) (_ bv7 8))))
(assert (not (= x68 x78)))
(assert (not (= x68 (_ bv7 8))))
(assert (not (= x78 (_ bv7 8))))
(assert (not (= x00 (_ bv2 8))))
(assert (not (= x00 x02)))
(assert (not (= x00 x10)))
(assert (not (= x00 x11)))
(assert (not (= x00 (_ bv8 8))))
(assert (not (= x00 (_ bv4 8))))
(assert (not (= x00 x21)))
(assert (not (= x00 x22)))
(assert (not (= (_ bv2 8) x02)))
(assert (not (= (_ bv2 8) x10)))
(assert (not (= (_ bv2 8) x11)))
(assert (not (= (_ bv2 8) (_ bv8 8))))
(assert (not (= (_ bv2 8) (_ bv4 8))))
(assert (not (= (_ bv2 8) x21)))
(assert (not (= (_ bv2 8) x22)))
(assert (not (= x02 x10)))
(assert (not (= x02 x11)))
(assert (not (= x02 (_ bv8 8))))
(assert (not (= x02 (_ bv4 8))))
(assert (not (= x02 x21)))
(assert (not (= x02 x22)))
(assert (not (= x10 x11)))
(assert (not (= x10 (_ bv8 8))))
(assert (not (= x10 (_ bv4 8))))
(assert (not (= x10 x21)))
(assert (not (= x10 x22)))
(assert (not (= x11 (_ bv8 8))))
(assert (not (= x11 (_ bv4 8))))
(assert (not (= x11 x21)))
(assert (not (= x11 x22)))
(assert (not (= (_ bv8 8) (_ bv4 8))))
(assert (not (= (_ bv8 8) x21)))
(assert (not (= (_ bv8 8) x22)))
(assert (not (= (_ bv4 8) x21)))
(assert (not (= (_ bv4 8) x22)))
(assert (not (= x21 x22)))
(assert (not (= x03 (_ bv6 8))))
(assert (not (= x03 x05)))
(assert (not (= x03 (_ bv5 8))))
(assert (not (= x03 (_ bv9 8))))
(assert (not (= x03 x15)))
(assert (not (= x03 x23)))
(assert (not (= x03 x24)))
(assert (not (= x03 (_ bv2 8))))
(assert (not (= (_ bv6 8) x05)))
(assert (not (= (_ bv6 8) (_ bv5 8))))
(assert (not (= (_ bv6 8) (_ bv9 8))))
(assert (not (= (_ bv6 8) x15)))
(assert (not (= (_ bv6 8) x23)))
(assert (not (= (_ bv6 8) x24)))
(assert (not (= (_ bv6 8) (_ bv2 8))))
(assert (not (= x05 (_ bv5 8))))
(assert (not (= x05 (_ bv9 8))))
(assert (not (= x05 x15)))
(assert (not (= x05 x23)))
(assert (not (= x05 x24)))
(assert (not (= x05 (_ bv2 8))))
(assert (not (= (_ bv5 8) (_ bv9 8))))
(assert (not (= (_ bv5 8) x15)))
(assert (not (= (_ bv5 8) x23)))
(assert (not (= (_ bv5 8) x24)))
(assert (not (= (_ bv5 8) (_ bv2 8))))
(assert (not (= (_ bv9 8) x15)))
(assert (not (= (_ bv9 8) x23)))
(assert (not (= (_ bv9 8) x24)))
(assert (not (= (_ bv9 8) (_ bv2 8))))
(assert (not (= x15 x23)))
(assert (not (= x15 x24)))
(assert (not (= x15 (_ bv2 8))))
(assert (not (= x23 x24)))
(assert (not (= x23 (_ bv2 8))))
(assert (not (= x24 (_ bv2 8))))
(assert (not (= (_ bv8 8) (_ bv1 8))))
(assert (not (= (_ bv8 8) x08)))
(assert (not (= (_ bv8 8) (_ bv6 8))))
(assert (not (= (_ bv8 8) x17)))
(assert (not (= (_ bv8 8) x18)))
(assert (not (= (_ bv8 8) x26)))
(assert (not (= (_ bv8 8) (_ bv7 8))))
(assert (not (= (_ bv8 8) (_ bv3 8))))
(assert (not (= (_ bv1 8) x08)))
(assert (not (= (_ bv1 8) (_ bv6 8))))
(assert (not (= (_ bv1 8) x17)))
(assert (not (= (_ bv1 8) x18)))
(assert (not (= (_ bv1 8) x26)))
(assert (not (= (_ bv1 8) (_ bv7 8))))
(assert (not (= (_ bv1 8) (_ bv3 8))))
(assert (not (= x08 (_ bv6 8))))
(assert (not (= x08 x17)))
(assert (not (= x08 x18)))
(assert (not (= x08 x26)))
(assert (not (= x08 (_ bv7 8))))
(assert (not (= x08 (_ bv3 8))))
(assert (not (= (_ bv6 8) x17)))
(assert (not (= (_ bv6 8) x18)))
(assert (not (= (_ bv6 8) x26)))
(assert (not (= (_ bv6 8) (_ bv7 8))))
(assert (not (= (_ bv6 8) (_ bv3 8))))
(assert (not (= x17 x18)))
(assert (not (= x17 x26)))
(assert (not (= x17 (_ bv7 8))))
(assert (not (= x17 (_ bv3 8))))
(assert (not (= x18 x26)))
(assert (not (= x18 (_ bv7 8))))
(assert (not (= x18 (_ bv3 8))))
(assert (not (= x26 (_ bv7 8))))
(assert (not (= x26 (_ bv3 8))))
(assert (not (= (_ bv7 8) (_ bv3 8))))
(assert (not (= (_ bv2 8) (_ bv7 8))))
(assert (not (= (_ bv2 8) x32)))
(assert (not (= (_ bv2 8) x40)))
(assert (not (= (_ bv2 8) x41)))
(assert (not (= (_ bv2 8) x42)))
(assert (not (= (_ bv2 8) (_ bv9 8))))
(assert (not (= (_ bv2 8) x51)))
(assert (not (= (_ bv2 8) x52)))
(assert (not (= (_ bv7 8) x32)))
(assert (not (= (_ bv7 8) x40)))
(assert (not (= (_ bv7 8) x41)))
(assert (not (= (_ bv7 8) x42)))
(assert (not (= (_ bv7 8) (_ bv9 8))))
(assert (not (= (_ bv7 8) x51)))
(assert (not (= (_ bv7 8) x52)))
(assert (not (= x32 x40)))
(assert (not (= x32 x41)))
(assert (not (= x32 x42)))
(assert (not (= x32 (_ bv9 8))))
(assert (not (= x32 x51)))
(assert (not (= x32 x52)))
(assert (not (= x40 x41)))
(assert (not (= x40 x42)))
(assert (not (= x40 (_ bv9 8))))
(assert (not (= x40 x51)))
(assert (not (= x40 x52)))
(assert (not (= x41 x42)))
(assert (not (= x41 (_ bv9 8))))
(assert (not (= x41 x51)))
(assert (not (= x41 x52)))
(assert (not (= x42 (_ bv9 8))))
(assert (not (= x42 x51)))
(assert (not (= x42 x52)))
(assert (not (= (_ bv9 8) x51)))
(assert (not (= (_ bv9 8) x52)))
(assert (not (= x51 x52)))
(assert (not (= x33 x34)))
(assert (not (= x33 (_ bv5 8))))
(assert (not (= x33 x43)))
(assert (not (= x33 (_ bv7 8))))
(assert (not (= x33 (_ bv1 8))))
(assert (not (= x33 (_ bv2 8))))
(assert (not (= x33 x54)))
(assert (not (= x33 (_ bv3 8))))
(assert (not (= x34 (_ bv5 8))))
(assert (not (= x34 x43)))
(assert (not (= x34 (_ bv7 8))))
(assert (not (= x34 (_ bv1 8))))
(assert (not (= x34 (_ bv2 8))))
(assert (not (= x34 x54)))
(assert (not (= x34 (_ bv3 8))))
(assert (not (= (_ bv5 8) x43)))
(assert (not (= (_ bv5 8) (_ bv7 8))))
(assert (not (= (_ bv5 8) (_ bv1 8))))
(assert (not (= (_ bv5 8) (_ bv2 8))))
(assert (not (= (_ bv5 8) x54)))
(assert (not (= (_ bv5 8) (_ bv3 8))))
(assert (not (= x43 (_ bv7 8))))
(assert (not (= x43 (_ bv1 8))))
(assert (not (= x43 (_ bv2 8))))
(assert (not (= x43 x54)))
(assert (not (= x43 (_ bv3 8))))
(assert (not (= (_ bv7 8) (_ bv1 8))))
(assert (not (= (_ bv7 8) (_ bv2 8))))
(assert (not (= (_ bv7 8) x54)))
(assert (not (= (_ bv7 8) (_ bv3 8))))
(assert (not (= (_ bv1 8) (_ bv2 8))))
(assert (not (= (_ bv1 8) x54)))
(assert (not (= (_ bv1 8) (_ bv3 8))))
(assert (not (= (_ bv2 8) x54)))
(assert (not (= (_ bv2 8) (_ bv3 8))))
(assert (not (= x54 (_ bv3 8))))
(assert (not (= (_ bv9 8) x37)))
(assert (not (= (_ bv9 8) x38)))
(assert (not (= (_ bv9 8) x46)))
(assert (not (= (_ bv9 8) x47)))
(assert (not (= (_ bv9 8) (_ bv5 8))))
(assert (not (= (_ bv9 8) x56)))
(assert (not (= (_ bv9 8) x57)))
(assert (not (= (_ bv9 8) (_ bv4 8))))
(assert (not (= x37 x38)))
(assert (not (= x37 x46)))
(assert (not (= x37 x47)))
(assert (not (= x37 (_ bv5 8))))
(assert (not (= x37 x56)))
(assert (not (= x37 x57)))
(assert (not (= x37 (_ bv4 8))))
(assert (not (= x38 x46)))
(assert (not (= x38 x47)))
(assert (not (= x38 (_ bv5 8))))
(assert (not (= x38 x56)))
(assert (not (= x38 x57)))
(assert (not (= x38 (_ bv4 8))))
(assert (not (= x46 x47)))
(assert (not (= x46 (_ bv5 8))))
(assert (not (= x46 x56)))
(assert (not (= x46 x57)))
(assert (not (= x46 (_ bv4 8))))
(assert (not (= x47 (_ bv5 8))))
(assert (not (= x47 x56)))
(assert (not (= x47 x57)))
(assert (not (= x47 (_ bv4 8))))
(assert (not (= (_ bv5 8) x56)))
(assert (not (= (_ bv5 8) x57)))
(assert (not (= (_ bv5 8) (_ bv4 8))))
(assert (not (= x56 x57)))
(assert (not (= x56 (_ bv4 8))))
(assert (not (= x57 (_ bv4 8))))
(assert (not (= (_ bv1 8) (_ bv4 8))))
(assert (not (= (_ bv1 8) x62)))
(assert (not (= (_ bv1 8) x70)))
(assert (not (= (_ bv1 8) (_ bv3 8))))
(assert (not (= (_ bv1 8) (_ bv6 8))))
(assert (not (= (_ bv1 8) x80)))
(assert (not (= (_ bv1 8) (_ bv9 8))))
(assert (not (= (_ bv1 8) x82)))
(assert (not (= (_ bv4 8) x62)))
(assert (not (= (_ bv4 8) x70)))
(assert (not (= (_ bv4 8) (_ bv3 8))))
(assert (not (= (_ bv4 8) (_ bv6 8))))
(assert (not (= (_ bv4 8) x80)))
(assert (not (= (_ bv4 8) (_ bv9 8))))
(assert (not (= (_ bv4 8) x82)))
(assert (not (= x62 x70)))
(assert (not (= x62 (_ bv3 8))))
(assert (not (= x62 (_ bv6 8))))
(assert (not (= x62 x80)))
(assert (not (= x62 (_ bv9 8))))
(assert (not (= x62 x82)))
(assert (not (= x70 (_ bv3 8))))
(assert (not (= x70 (_ bv6 8))))
(assert (not (= x70 x80)))
(assert (not (= x70 (_ bv9 8))))
(assert (not (= x70 x82)))
(assert (not (= (_ bv3 8) (_ bv6 8))))
(assert (not (= (_ bv3 8) x80)))
(assert (not (= (_ bv3 8) (_ bv9 8))))
(assert (not (= (_ bv3 8) x82)))
(assert (not (= (_ bv6 8) x80)))
(assert (not (= (_ bv6 8) (_ bv9 8))))
(assert (not (= (_ bv6 8) x82)))
(assert (not (= x80 (_ bv9 8))))
(assert (not (= x80 x82)))
(assert (not (= (_ bv9 8) x82)))
(assert (not (= x63 x64)))
(assert (not (= x63 (_ bv8 8))))
(assert (not (= x63 (_ bv4 8))))
(assert (not (= x63 x74)))
(assert (not (= x63 x75)))
(assert (not (= x63 x83)))
(assert (not (= x63 x84)))
(assert (not (= x63 x85)))
(assert (not (= x64 (_ bv8 8))))
(assert (not (= x64 (_ bv4 8))))
(assert (not (= x64 x74)))
(assert (not (= x64 x75)))
(assert (not (= x64 x83)))
(assert (not (= x64 x84)))
(assert (not (= x64 x85)))
(assert (not (= (_ bv8 8) (_ bv4 8))))
(assert (not (= (_ bv8 8) x74)))
(assert (not (= (_ bv8 8) x75)))
(assert (not (= (_ bv8 8) x83)))
(assert (not (= (_ bv8 8) x84)))
(assert (not (= (_ bv8 8) x85)))
(assert (not (= (_ bv4 8) x74)))
(assert (not (= (_ bv4 8) x75)))
(assert (not (= (_ bv4 8) x83)))
(assert (not (= (_ bv4 8) x84)))
(assert (not (= (_ bv4 8) x85)))
(assert (not (= x74 x75)))
(assert (not (= x74 x83)))
(assert (not (= x74 x84)))
(assert (not (= x74 x85)))
(assert (not (= x75 x83)))
(assert (not (= x75 x84)))
(assert (not (= x75 x85)))
(assert (not (= x83 x84)))
(assert (not (= x83 x85)))
(assert (not (= x84 x85)))
(assert (not (= (_ bv3 8) x67)))
(assert (not (= (_ bv3 8) x68)))
(assert (not (= (_ bv3 8) (_ bv1 8))))
(assert (not (= (_ bv3 8) x77)))
(assert (not (= (_ bv3 8) x78)))
(assert (not (= (_ bv3 8) x86)))
(assert (not (= (_ bv3 8) (_ bv2 8))))
(assert (not (= (_ bv3 8) (_ bv7 8))))
(assert (not (= x67 x68)))
(assert (not (= x67 (_ bv1 8))))
(assert (not (= x67 x77)))
(assert (not (= x67 x78)))
(assert (not (= x67 x86)))
(assert (not (= x67 (_ bv2 8))))
(assert (not (= x67 (_ bv7 8))))
(assert (not (= x68 (_ bv1 8))))
(assert (not (= x68 x77)))
(assert (not (= x68 x78)))
(assert (not (= x68 x86)))
(assert (not (= x68 (_ bv2 8))))
(assert (not (= x68 (_ bv7 8))))
(assert (not (= (_ bv1 8) x77)))
(assert (not (= (_ bv1 8) x78)))
(assert (not (= (_ bv1 8) x86)))
(assert (not (= (_ bv1 8) (_ bv2 8))))
(assert (not (= (_ bv1 8) (_ bv7 8))))
(assert (not (= x77 x78)))
(assert (not (= x77 x86)))
(assert (not (= x77 (_ bv2 8))))
(assert (not (= x77 (_ bv7 8))))
(assert (not (= x78 x86)))
(assert (not (= x78 (_ bv2 8))))
(assert (not (= x78 (_ bv7 8))))
(assert (not (= x86 (_ bv2 8))))
(assert (not (= x86 (_ bv7 8))))
(assert (not (= (_ bv2 8) (_ bv7 8))))
(check-sat)
(exit)
